(set-option :produce-models true)
(set-logic QF_UF)
(declare-fun p41() Bool)
(declare-fun p34() Bool)
(declare-fun p31() Bool)
(declare-fun p44() Bool)
(declare-fun p63() Bool)
(declare-fun p46() Bool)
(declare-fun p62() Bool)
(declare-fun p72() Bool)
(declare-fun p99() Bool)
(declare-fun p51() Bool)
(declare-fun p95() Bool)
(declare-fun p7() Bool)
(declare-fun p43() Bool)
(declare-fun p22() Bool)
(declare-fun p24() Bool)
(declare-fun p18() Bool)
(declare-fun p75() Bool)
(declare-fun p92() Bool)
(declare-fun p93() Bool)
(declare-fun p77() Bool)
(declare-fun p83() Bool)
(declare-fun p85() Bool)
(declare-fun p6() Bool)
(declare-fun p94() Bool)
(declare-fun p19() Bool)
(declare-fun p30() Bool)
(declare-fun p59() Bool)
(declare-fun p88() Bool)
(declare-fun p29() Bool)
(declare-fun p16() Bool)
(declare-fun p1() Bool)
(declare-fun p36() Bool)
(declare-fun p50() Bool)
(declare-fun p69() Bool)
(declare-fun p54() Bool)
(declare-fun p76() Bool)
(declare-fun p67() Bool)
(declare-fun p55() Bool)
(declare-fun p48() Bool)
(declare-fun p15() Bool)
(declare-fun p66() Bool)
(declare-fun p4() Bool)
(declare-fun p53() Bool)
(declare-fun p26() Bool)
(declare-fun p38() Bool)
(declare-fun p21() Bool)
(declare-fun p78() Bool)
(declare-fun p86() Bool)
(declare-fun p58() Bool)
(declare-fun p52() Bool)
(declare-fun p17() Bool)
(declare-fun p33() Bool)
(declare-fun p11() Bool)
(declare-fun p61() Bool)
(declare-fun p90() Bool)
(declare-fun p56() Bool)
(declare-fun p91() Bool)
(declare-fun p28() Bool)
(declare-fun p32() Bool)
(declare-fun p25() Bool)
(declare-fun p20() Bool)
(declare-fun p65() Bool)
(declare-fun p47() Bool)
(declare-fun p80() Bool)
(declare-fun p10() Bool)
(declare-fun p81() Bool)
(declare-fun p39() Bool)
(declare-fun p2() Bool)
(declare-fun p84() Bool)
(declare-fun p37() Bool)
(declare-fun p14() Bool)
(declare-fun p0() Bool)
(declare-fun p5() Bool)
(declare-fun p42() Bool)
(declare-fun p89() Bool)
(declare-fun p13() Bool)
(declare-fun p74() Bool)
(declare-fun p73() Bool)
(declare-fun p9() Bool)
(declare-fun p3() Bool)
(declare-fun p71() Bool)
(declare-fun p35() Bool)
(declare-fun p64() Bool)
(declare-fun p27() Bool)
(declare-fun p12() Bool)
(declare-fun p57() Bool)
(declare-fun p96() Bool)
(declare-fun p82() Bool)
(declare-fun p97() Bool)
(declare-fun p23() Bool)
(declare-fun p68() Bool)
(declare-fun p49() Bool)
(declare-fun p60() Bool)
(declare-fun p45() Bool)
(declare-fun p98() Bool)
(declare-fun p87() Bool)
(declare-fun p40() Bool)
(declare-fun p8() Bool)
(declare-fun p79() Bool)
(declare-fun p70() Bool)
(assert
(and (or (not p41) p34 p31) (or (not p31) (not p44) (not p63)) (or p46 (not p62) p72) (or (not p99) (not p51) p95) (or p7 p43 p22) (or p72 p24 (not p18)) (or p75 p99 p92) (or p93 p77 p83) (or p85 (not p6) (not p94)) (or (not p19) (not p30) p59) (or (not p77) (not p34) (not p88)) (or p31 (not p30) (not p29)) (or (not p16) (not p1) (not p36)) (or (not p62) (not p43) p50) (or (not p50) (not p88) (not p63)) (or (not p19) p69 (not p54)) (or p24 (not p76) p67) (or (not p55) p22 (not p92)) (or (not p48) p15 (not p59)) (or (not p31) (not p66) (not p43)) (or p4 (not p19) (not p67)) (or (not p53) p6 (not p26)) (or (not p75) (not p88) (not p38)) (or (not p69) (not p21) (not p78)) (or (not p86) p43 p58) (or p76 (not p52) (not p17)) (or (not p95) p33 p29) (or (not p59) (not p46) (not p11)) (or p61 p90 (not p56)) (or (not p59) (not p91) p54) (or (not p86) p75 (not p1)) (or p28 (not p1) (not p32)) (or p36 (not p25) (not p7)) (or p69 p30 (not p20)) (or (not p92) (not p75) p53) (or p85 p46 p65) (or p47 p86 (not p54)) (or (not p7) (not p33) p88) (or p34 (not p43) p62) (or (not p80) p10 (not p36)) (or (not p81) p39 (not p36)) (or p86 (not p80) (not p29)) (or (not p22) (not p2) (not p18)) (or (not p75) p84 (not p37)) (or p20 p30 (not p14)) (or (not p0) (not p5) (not p11)) (or (not p16) p4 (not p75)) (or (not p41) p28 p42) (or (not p21) p76 (not p22)) (or p6 p89 p34) (or (not p69) p81 (not p13)) (or p26 (not p95) (not p19)) (or (not p76) (not p74) (not p83)) (or p25 p19 (not p59)) (or p73 (not p80) p0) (or (not p9) (not p61) p26) (or (not p44) (not p3) p6) (or (not p17) (not p0) (not p11)) (or p71 p44 p52) (or p92 p71 p46) (or p89 (not p55) p14) (or p28 (not p35) p22) (or p78 (not p20) p90) (or p44 p32 (not p66)) (or (not p2) p69 (not p64)) (or (not p47) (not p33) (not p56)) (or p67 p95 p7) (or (not p38) p83 (not p89)) (or p50 p91 (not p38)) (or p32 p4 p19) (or (not p17) p55 (not p80)) (or (not p61) p7 p36) (or (not p3) (not p27) (not p6)) (or (not p12) p94 p93) (or p34 (not p55) (not p57)) (or (not p66) (not p32) p95) (or p62 (not p62) p16) (or (not p11) p41 p99) (or (not p48) (not p9) (not p96)) (or p74 p14 p5) (or p55 (not p82) p44) (or (not p39) (not p90) (not p38)) (or p77 (not p94) p58) (or (not p76) (not p88) (not p51)) (or (not p97) (not p29) p10) (or (not p73) p23 (not p95)) (or p84 (not p68) p33) (or (not p49) p50 (not p1)) (or p75 p60 p47) (or (not p80) (not p26) p16) (or p32 (not p78) (not p21)) (or (not p25) p68 (not p29)) (or (not p53) (not p91) p46) (or p76 p17 (not p20)) (or (not p18) p47 (not p1)) (or (not p50) (not p19) (not p73)) (or (not p16) (not p11) (not p97)) (or (not p6) (not p32) p74) (or (not p11) p77 (not p94)) (or p67 p2 (not p36)) (or p45 p51 (not p6)) (or p31 (not p97) p46) (or (not p37) p86 (not p58)) (or (not p55) (not p88) p84) (or (not p13) p60 (not p98)) (or p74 p75 p27) (or (not p39) p64 p96) (or p28 p44 (not p10)) (or p87 (not p2) p92) (or (not p91) (not p33) p45) (or (not p40) (not p98) (not p64)) (or p4 (not p66) p87) (or (not p96) p56 p48) (or (not p54) p58 (not p50)) (or p0 (not p19) p87) (or p92 p40 (not p92)) (or p0 (not p12) p51) (or (not p77) p76 (not p8)) (or p50 p96 (not p76)) (or p56 (not p89) p41) (or p99 (not p86) (not p42)) (or (not p47) p50 (not p25)) (or p59 p86 (not p25)) (or p83 p99 p52) (or (not p45) p91 p78) (or (not p79) p71 p95) (or p60 (not p21) p26) (or p59 (not p28) (not p0)) (or p71 p61 p63) (or p28 (not p67) p39) (or p48 p37 p47) (or (not p44) p80 p57) (or p51 (not p57) p94) (or (not p11) (not p0) (not p14)) (or (not p21) (not p5) (not p26)) (or p90 (not p68) (not p95)) (or (not p90) p8 (not p3)) (or p10 (not p68) p58) (or p35 p51 p79) (or p89 p10 p75) (or p3 (not p61) p16) (or (not p40) p31 p72) (or p87 (not p79) (not p49)) (or p31 p49 p3) (or (not p15) p48 (not p7)) (or p15 p69 (not p30)) (or p46 p53 p54) (or (not p57) p77 p17) (or p5 (not p49) (not p41)) (or (not p37) (not p4) (not p88)) (or (not p83) (not p63) (not p19)) (or p94 (not p38) p60) (or (not p3) p75 (not p95)) (or (not p80) (not p26) p78) (or (not p79) (not p10) (not p31)) (or p69 (not p54) p30) (or (not p75) p63 p40) (or (not p4) (not p47) p40) (or (not p20) p41 p40) (or p18 p32 (not p65)) (or p69 (not p14) (not p46)) (or p35 (not p55) p86) (or p21 p2 (not p16)) (or (not p25) (not p95) (not p69)) (or p25 p75 p67) (or p53 (not p53) (not p33)) (or p65 (not p27) p66) (or (not p87) (not p20) (not p31)) (or p50 p62 (not p7)) (or p74 (not p56) p67) (or p79 p23 p35) (or (not p13) p25 (not p29)) (or (not p41) (not p42) (not p66)) (or (not p73) (not p97) (not p57)) (or (not p78) (not p25) (not p33)) (or p98 p71 (not p55)) (or p16 p73 (not p92)) (or (not p62) (not p85) (not p31)) (or p78 p26 p73) (or p49 p51 p90) (or p75 p82 (not p74)) (or (not p36) (not p97) p26) (or p85 p81 p20) (or p68 (not p36) (not p64)) (or (not p61) p5 (not p85)) (or p10 (not p73) p6) (or (not p5) (not p9) (not p71)) (or (not p29) (not p60) p15) (or (not p48) p91 (not p83)) (or (not p0) (not p66) p25) (or p24 (not p64) p5) (or (not p88) p10 p67) (or p8 p50 (not p69)) (or p14 (not p92) p96) (or p19 p58 (not p68)) (or (not p78) p25 (not p7)) (or p30 (not p55) (not p67)) (or (not p76) (not p28) (not p17)) (or (not p13) (not p98) p36) (or (not p25) (not p64) p59) (or p49 (not p11) (not p62)) (or (not p69) (not p75) p58) (or p55 p60 (not p34)) (or (not p84) (not p65) (not p97)) (or (not p29) (not p84) (not p32)) (or (not p15) p16 (not p49)) (or (not p75) p96 (not p80)) (or p65 (not p79) (not p82)) (or (not p91) (not p92) (not p44)) (or (not p76) p8 (not p97)) (or p85 (not p99) p11) (or p82 p32 p76) (or (not p82) p40 (not p85)) (or (not p43) (not p93) (not p6)) (or p94 (not p87) p8) (or (not p6) (not p0) p58) (or (not p24) p71 (not p89)) (or (not p56) p4 p82) (or p46 (not p67) (not p89)) (or p42 (not p74) p96) (or (not p67) p15 (not p18)) (or p75 p20 p15) (or p50 p73 p83) (or p60 p44 (not p5)) (or p58 (not p26) p60) (or p5 (not p0) (not p37)) (or p30 p48 p52) (or (not p86) (not p49) p11) (or p15 p2 (not p43)) (or p6 (not p9) (not p92)) (or (not p89) p78 p66) (or p16 (not p75) p10) (or p19 (not p30) (not p41)) (or (not p43) p74 (not p78)) (or p18 (not p21) (not p86)) (or p53 (not p99) p6) (or (not p68) p56 (not p73)) (or (not p29) p28 (not p89)) (or p16 p83 (not p8)) (or (not p1) (not p78) (not p35)) (or p48 (not p72) (not p74)) (or p75 p22 (not p52)) (or p15 p5 p29) (or (not p33) (not p5) p22) (or p67 p39 p34) (or p18 (not p13) p28) (or p38 (not p29) p47) (or p19 (not p2) p30) (or (not p40) (not p10) (not p78)) (or (not p49) (not p41) (not p5)) (or (not p12) p63 p66) (or (not p23) p90 (not p84)) (or (not p41) (not p94) (not p91)) (or p76 (not p37) (not p51)) (or (not p97) p1 (not p95)) (or (not p87) (not p31) (not p81)) (or p45 (not p61) p52) (or (not p88) (not p14) p68) (or (not p42) (not p84) (not p33)) (or (not p7) (not p11) (not p50)) (or (not p35) p51 (not p88)) (or (not p68) (not p63) p0) (or p34 p76 (not p72)) (or p69 (not p26) p6) (or p8 p47 p28) (or p80 (not p8) (not p32)) (or p81 p76 (not p79)) (or (not p58) p77 p28) (or (not p78) (not p78) p36) (or (not p12) (not p69) p48) (or p37 (not p35) (not p3)) (or (not p13) (not p60) p55) (or (not p4) p97 p15) (or p45 p2 p19) (or (not p39) (not p98) (not p45)) (or p58 (not p15) (not p13)) (or p66 p71 p12) (or (not p52) (not p65) (not p17)) (or p55 (not p66) p5) (or p11 p85 p52) (or p65 p68 p41) (or (not p58) p39 p65) (or p31 p43 (not p57)) (or p78 (not p33) (not p31)) (or (not p53) p66 (not p65)) (or (not p0) p45 p32) (or p2 (not p84) (not p64)) (or (not p59) (not p47) (not p9)) (or (not p68) (not p3) (not p5)) (or p36 p3 p78) (or (not p71) (not p26) (not p0)) (or (not p44) p63 (not p3)) (or p43 p24 (not p0)) (or (not p89) (not p76) (not p52)) (or (not p15) (not p3) p20) (or p12 p92 p53) (or p88 (not p74) p62) (or (not p16) (not p25) (not p8)) (or (not p77) p12 p27) (or p61 (not p73) (not p32)) (or (not p62) p45 (not p79)) (or (not p88) (not p3) p46) (or p96 (not p7) p46) (or (not p6) p56 p59) (or (not p13) (not p15) p98) (or (not p29) p72 (not p59)) (or (not p43) p68 p22) (or p1 (not p17) p43) (or p82 p27 (not p1)) (or (not p90) (not p93) p87) (or p19 p95 p45) (or p6 p90 p16) (or (not p11) p39 (not p41)) (or p32 (not p3) p12) (or (not p49) p22 (not p26)) (or (not p65) (not p48) p90) (or (not p57) (not p65) p51) (or p63 p56 (not p78)) (or (not p55) (not p57) p4) (or (not p51) (not p59) (not p2)) (or p22 p64 (not p50)) (or p91 p9 (not p79)) (or (not p44) p54 (not p21)) (or p40 p49 p39) (or p58 p3 (not p20)) (or p99 (not p86) (not p36)) (or p81 p68 p56) (or p44 (not p43) (not p45)) (or (not p79) p80 (not p67)) (or (not p92) (not p14) (not p25)) (or (not p92) (not p77) p36) (or (not p35) (not p69) p73) (or p53 (not p3) (not p37)) (or p73 p1 p43) (or p99 p20 (not p57)) (or (not p47) p11 (not p21)) (or (not p24) (not p78) (not p16)) (or (not p31) p61 (not p60)) (or (not p81) p41 (not p97)) (or p18 (not p35) p95) (or (not p64) p24 (not p84)) (or (not p55) (not p81) (not p28)) (or p45 (not p19) p60) (or p33 (not p28) (not p86)) (or (not p30) (not p47) (not p3)) (or p4 (not p60) p26) (or (not p56) p32 (not p13)) (or (not p5) (not p82) (not p53)) (or (not p41) (not p95) (not p55)) (or p40 (not p89) (not p69)) (or (not p90) (not p72) p13) (or (not p40) p8 (not p28)) (or (not p57) (not p85) p0) (or p79 p32 (not p66)) (or p46 p8 p78) (or p28 p34 p77) (or p93 (not p49) (not p33)) (or p59 p50 p32) (or p30 p79 p65) (or p65 p45 (not p28)) (or p89 p0 p21) (or (not p50) (not p19) p28) (or (not p50) (not p27) (not p33)) (or (not p37) p27 (not p91)) (or p14 (not p46) (not p26)) (or (not p14) p9 p39) (or p21 p61 p80) (or (not p16) p5 p78) (or (not p93) (not p63) (not p80)) (or (not p36) (not p36) (not p85)) (or p22 p91 (not p19)) (or (not p33) p61 (not p43)) (or p95 p50 p69) (or p80 (not p68) (not p91)) (or p93 (not p79) p62) (or (not p16) p81 (not p89)) (or (not p10) p54 (not p39)) (or p84 (not p11) p36) (or p1 (not p61) (not p15)) (or (not p35) p31 (not p27)) (or p30 p14 p0) (or p76 (not p78) (not p77)) (or (not p31) p82 p44) (or (not p81) p89 (not p75)) (or (not p36) p45 p6) (or p47 p58 p60) (or (not p29) (not p28) (not p69)) (or (not p89) p73 p49) (or (not p52) p70 p45) (or (not p52) (not p97) p81) (or (not p52) (not p59) p11) (or (not p11) (not p98) p39) (or (not p2) p10 (not p33)) (or p32 (not p62) p61) (or (not p25) p90 (not p87)) (or (not p33) (not p2) (not p51)) (or (not p5) p35 (not p53)) (or p84 (not p18) p14) (or (not p99) (not p99) p34) (or (not p98) (not p25) p90) (or (not p88) (not p5) p55) (or (not p94) (not p53) (not p19)) (or (not p10) p64 p89) (or p70 p15 (not p71)) (or (not p35) p1 (not p72)) (or (not p81) p24 p24) (or (not p44) (not p46) (not p15)) (or p85 p98 (not p19)) (or (not p7) p18 (not p72)) (or (not p46) (not p3) p42) (or (not p44) (not p81) (not p51)) (or p89 p51 p0) (or (not p83) p60 p22) (or p62 (not p93) (not p83)) (or p60 (not p63) p33) (or (not p15) p83 p59) (or (not p42) p16 p12) (or p19 p86 p45) (or (not p41) (not p14) (not p61)) (or p41 (not p57) (not p32)))
)
(check-sat)
(get-model)
